Model status
Optimal

# Primal solution values
Feasible
Objective 11
# Columns 4
x[0] 10
x[1] 1
y 0
z 0
# Rows 2
c0 10
linear1 1

# Dual solution values
Feasible
# Columns 4
x[0] 0
x[1] 0
y -3
z -2
# Rows 2
c0 1
linear1 1

# Basis
HiGHS v1
Valid
# Columns 4
1 1 0 0 
# Rows 2
2 2 
